proyfinal/src/viki/013/experimentInOfficeAgust.take6.output/b91690da-9906-46e4-8203-f1bd0fd4af2c.als.dat
{'cnf.clauses': '118081',
 'cnf.totvars': '69608',
 'conflict literals': '73',
 'conflicts': '25',
 'decisions': '5695',
 'memused.mb': '16.71',
 'outcome': 'UNSAT',
 'propagations': '25323',
 'restarts': '1',
 'solver.msecs': 25,
 'task.msecs': 79}
