proyfinal/src/viki/013/experimentInOfficeAgust.take6.output/b91690da-9906-46e4-8203-f1bd0fd4af2c.als.out
Reading from standard input... Use '--help' for help.
============================[ Problem Statistics ]=============================
|                                                                             |
|  Number of variables:         69608                                         |
|  Number of clauses:          118081                                         |
|  Parse time:                   0.02 s                                       |
|                                                                             |
============================[ Search Statistics ]==============================
| Conflicts |          ORIGINAL         |          LEARNT          | Progress |
|           |    Vars  Clauses Literals |    Limit  Clauses Lit/Cl |          |
===============================================================================
===============================================================================
restarts              : 1
conflicts             : 25             (977 /sec)
decisions             : 5695           (0.00 % random) (222548 /sec)
propagations          : 25323          (989566 /sec)
conflict literals     : 73             (0.00 % deleted)
Memory used           : 16.71 MB
CPU time              : 0.02559 s

UNSATISFIABLE
